%chk=23_MC0_c2_OpFr.chk
%nprocshared=92
%mem=350Gb
#P M062X/6-311G(2df,p) opt freq 

Optimization of 23_MC0_c2

0   1
C     -2.501450   -1.499727    1.165289
C     -1.855866   -1.016519   -0.133973
C     -1.780724   -2.137744   -1.171080
C     -0.458786   -0.435971    0.137387
C      0.687836   -1.155689    0.704994
C      1.758208   -1.098769   -0.106995
C      2.969135   -0.474599    0.461986
C      3.004753    0.956781    0.570970
O      2.057968    1.747363    0.207532
C      4.197493    1.455116    1.129221
C      5.258746    0.636375    1.544787
C      5.172092   -0.743830    1.417118
C      4.023869   -1.304788    0.873699
N     -0.406356    0.814262   -0.174228
C     -1.661033    1.271712   -0.692614
C     -2.560577    0.204844   -0.684388
C     -3.853693    0.385987   -1.138876
C     -4.211785    1.659471   -1.598008
C     -3.286277    2.722980   -1.598279
C     -1.981822    2.534132   -1.138022
H     -2.516171   -0.709504    1.925600
H     -3.536498   -1.820793    1.002324
H     -1.950974   -2.346953    1.589680
H     -1.216872   -2.995305   -0.786922
H     -1.279383   -1.804890   -2.087949
H     -2.779468   -2.491810   -1.450518
H      0.801611   -1.084559    1.784863
H      1.688744   -0.974232   -1.185893
H      4.307757    2.534164    1.244070
H      6.150021    1.093031    1.964504
H      5.994838   -1.375112    1.736060
H      3.950370   -2.382458    0.767580
H      0.469726    1.379413   -0.073538
H     -4.576072   -0.424948   -1.145225
H     -5.223205    1.834525   -1.963164
H     -3.594544    3.701747   -1.962685
H     -1.261612    3.346295   -1.135305

