%chk=15_ABI_c0_OpFr.chk
%nprocshared=92
%mem=350Gb
#P M062X/6-311+G(2df,p) opt freq 

Optimization of 15_ABI_c0

-1   1
C      5.378835    0.542927    0.323260
C      5.152019   -0.290646   -0.782346
C      3.849814   -0.641501   -1.155976
C      2.784200   -0.151102   -0.414577
C      3.020462    0.674339    0.679402
C      4.305149    1.034261    1.066787
C      1.781705    1.097027    1.343545
O      1.760238    1.821099    2.324988
C      0.596712    0.514424    0.643242
C     -0.645444    0.753710    1.084935
C     -1.885810    0.236383    0.497895
C     -2.310946    0.636252   -0.773008
C     -3.507726    0.143772   -1.303367
C     -4.307876   -0.751113   -0.575389
C     -3.874280   -1.137286    0.702865
C     -2.678180   -0.647201    1.236962
C     -5.606146   -1.283805   -1.152657
O     -6.273458   -2.090403   -0.430464
O     -5.930831   -0.883652   -2.315365
S      1.068596   -0.468256   -0.711194
H      6.396464    0.806958    0.601959
H      5.996344   -0.668513   -1.355018
H      3.679309   -1.287616   -2.012566
H      4.463653    1.680196    1.925320
H     -0.793732    1.369300    1.970293
H     -1.724282    1.332868   -1.364546
H     -3.832326    0.455643   -2.295068
H     -4.485372   -1.829118    1.280886
H     -2.377090   -0.968945    2.229729

