%chk=40_S17_c0_OpFr.chk
%nprocshared=92
%mem=350Gb
#P M062X/6-311G(2df,p) opt freq 

Optimization of 40_S17_c0    

0   1
C     -5.417592   -1.501581   -1.019613
C     -3.951688   -1.438025   -1.474359
C     -3.903952   -1.775608   -2.979909
C     -3.162160   -2.520216   -0.719690
C     -3.318425   -0.026218   -1.284668
N     -3.264155    0.417083    0.117975
C     -4.140192    1.452289    0.532811
C     -3.643354    2.182293    1.623282
C     -4.359767    3.223257    2.205606
C     -5.606003    3.549227    1.677326
C     -6.115321    2.834651    0.588590
C     -5.385099    1.784768    0.018374
C     -2.286218    1.643866    2.012071
C     -1.280147    2.753646    2.348581
C     -2.474527    0.739852    3.248190
C     -1.942121    0.857061    0.671152
O     -1.349221    1.780782   -0.279259
C     -0.017580    1.672409   -0.571702
C      0.771388    0.578649   -0.181842
C      0.156632   -0.528424    0.526136
C     -1.111953   -0.381321    0.920563
C      2.147185    0.562087   -0.519228
C      2.629572    1.632659   -1.267180
O      3.946733    1.474046   -1.545811
C      4.360699    0.305961   -0.970245
C      3.288267   -0.289561   -0.316384
C      3.386766   -1.543121    0.404345
C      3.327976   -1.550794    1.803747
C      3.420078   -2.755998    2.501301
C      3.571054   -3.954771    1.804776
C      3.630219   -3.951751    0.411114
C      3.537832   -2.748511   -0.290197
C      5.778054    0.001782   -1.172387
C      6.418369    0.377508   -2.364309
C      7.769757    0.091655   -2.577635
C      8.503022   -0.573058   -1.598768
C      7.886807   -0.947558   -0.407518
C      6.534799   -0.659724   -0.195493
C      1.866050    2.721468   -1.684698
C      0.521021    2.722376   -1.315113
H     -5.523077   -1.263282    0.043575
H     -5.830220   -2.506923   -1.166277
H     -6.043597   -0.813648   -1.596385
H     -2.872952   -1.784815   -3.351434
H     -4.464512   -1.039884   -3.567728
H     -4.337807   -2.761793   -3.181298
H     -2.100551   -2.498634   -0.987819
H     -3.538501   -3.522040   -0.958476
H     -3.250607   -2.396707    0.364049
H     -3.836368    0.707968   -1.915419
H     -2.300533   -0.071673   -1.694158
H     -3.965401    3.773251    3.053607
H     -6.185693    4.359378    2.111955
H     -7.089303    3.094463    0.181180
H     -5.811634    1.255350   -0.822922
H     -1.548900    3.266656    3.279543
H     -0.274357    2.341398    2.483337
H     -1.235451    3.522932    1.569672
H     -1.522758    0.303203    3.570540
H     -2.872175    1.308551    4.097775
H     -3.177359   -0.079801    3.057084
H      0.693766   -1.447897    0.712598
H     -1.593455   -1.195642    1.452010
H      3.211099   -0.620566    2.355400
H      3.374277   -2.759938    3.587371
H      3.643364   -4.893483    2.348622
H      3.748991   -4.886894   -0.130379
H      3.585786   -2.757464   -1.376934
H      5.862240    0.896349   -3.142741
H      8.246357    0.390125   -3.507632
H      9.554239   -0.795499   -1.761876
H      8.457144   -1.461317    0.362090
H      6.089616   -0.951028    0.751735
H      2.302517    3.524833   -2.266071
H     -0.116989    3.551335   -1.613693


