%chk=50_M09_c2_OpFr.chk
%nprocshared=92
%mem=350Gb
#P M062X/6-311G(2df,p) opt freq 

Optimization of 50_M09_c2    

0   1
C     -2.329031    1.198796    2.721699
N     -2.109160    0.862185    1.312507
C     -1.143683    1.201119    0.512184
C     -0.032721    2.106848    0.861030
C      1.198508    1.684117    1.181964
C      1.698853    0.291158    1.200337
C      1.102440   -0.742769    1.972961
O      0.089890   -0.601930    2.737081
C      1.734190   -1.998658    1.859499
C      2.862609   -2.237143    1.063227
C      3.427067   -1.208244    0.319399
C      4.629735   -1.477556   -0.479922
C      4.867372   -0.909111   -1.669802
C      6.095915   -1.242324   -2.414020
O      6.334657   -0.739240   -3.505091
C      2.849688    0.058940    0.411135
C     -1.397462    0.672966   -0.926029
C     -0.290004   -0.236593   -1.452950
C     -1.620285    1.853618   -1.880249
C     -2.678243   -0.098060   -0.729883
C     -3.062161    0.005301    0.602969
C     -4.199008   -0.612673    1.092653
C     -4.967315   -1.357913    0.194322
C     -4.588692   -1.464816   -1.154994
C     -3.435260   -0.833216   -1.628142
H     -1.487902    1.777359    3.111699
H     -3.234210    1.810188    2.787100
H     -2.460487    0.283306    3.304533
H     -0.269434    3.163635    0.917778
H      1.948759    2.418288    1.468046
H      1.329365   -2.833104    2.434857
H      3.279954   -3.239730    1.045794
H      5.321732   -2.198358   -0.050547
H      4.195572   -0.207209   -2.147926
H      6.780732   -1.962521   -1.936446
H      3.290129    0.890988   -0.132239
H     -0.549902   -0.657554   -2.431414
H     -0.104799   -1.080419   -0.780133
H      0.648535    0.311774   -1.579396
H     -0.704362    2.443322   -2.000236
H     -1.929958    1.513640   -2.875182
H     -2.396749    2.532720   -1.507516
H     -4.493064   -0.548161    2.134212
H     -5.862681   -1.870599    0.541632
H     -5.196389   -2.057865   -1.836865
H     -3.142740   -0.931986   -2.669636


