%chk=32_S09_c7_OpFr.chk
%nprocshared=92
%mem=350Gb
#P M062X/6-311G(2df,p) opt freq 

Optimization of 32_S09_c7    

0   1
C     -1.913676   -0.175479   -2.575432
N     -2.180729   -0.494623   -1.180342
C     -3.144604    0.300243   -0.524986
C     -2.902467    0.430848    0.848114
C     -3.750156    1.161935    1.672794
C     -4.866675    1.773035    1.104415
C     -5.126078    1.637792   -0.264803
C     -4.267999    0.894638   -1.082203
C     -1.660061   -0.350557    1.217289
C     -2.113505   -1.663667    1.888079
C     -0.749740    0.418831    2.185047
C     -1.029277   -0.542538   -0.236824
O     -0.162294    0.582809   -0.528065
C      1.187456    0.379076   -0.571897
C      1.778884   -0.884884   -0.605221
C      0.938206   -2.069424   -0.610475
C     -0.375776   -1.894392   -0.441621
C      3.173157   -0.993807   -0.662204
C      3.970693    0.157188   -0.685077
C      5.428020    0.042888   -0.725343
C      6.223504   -0.102236    0.343706
C      5.746450   -0.161528    1.741830
O      6.533350   -0.312923    2.669001
C      3.369329    1.418617   -0.658567
C      1.979116    1.527394   -0.606414
H     -1.084819   -0.779814   -2.959241
H     -1.654446    0.880737   -2.712040
H     -2.783266   -0.407968   -3.199489
H     -3.560302    1.252963    2.737152
H     -5.545497    2.349329    1.727976
H     -6.006120    2.108383   -0.695810
H     -4.497032    0.787233   -2.136337
H     -2.774901   -2.251013    1.240207
H     -1.255297   -2.289393    2.156970
H     -2.669671   -1.465016    2.812528
H     -1.215875    0.526373    3.171587
H     -0.531664    1.432388    1.830505
H      0.199888   -0.107552    2.329533
H      1.374108   -3.050528   -0.756471
H     -1.033806   -2.758215   -0.459754
H      3.640569   -1.975904   -0.691983
H      5.867993    0.084125   -1.719445
H      7.299479   -0.182545    0.227354
H      4.662077   -0.063760    1.906859
H      3.973497    2.322953   -0.679391
H      1.509958    2.507987   -0.589296


