%chk=50_M09_c0_OpFr.chk
%nprocshared=92
%mem=350Gb
#P M062X/6-311G(2df,p) opt freq 

Optimization of 50_M09_c0    

0   1
C     -0.242807   -1.799376    0.138514
N     -1.216174   -0.831454   -0.365248
C     -1.094065    0.144356   -1.216836
C      0.129314    0.639235   -1.893991
C      1.334456    0.873602   -1.350650
C      1.820656    0.683721    0.038512
C      1.075169    1.035725    1.197923
O     -0.104896    1.522270    1.196941
C      1.740947    0.808322    2.421119
C      3.033050    0.276999    2.521505
C      3.739604   -0.066952    1.376475
C      5.107229   -0.587232    1.507853
C      5.622288   -1.524983    0.701235
C      7.002884   -2.000025    0.908707
O      7.489894   -2.866644    0.193040
C      3.132072    0.158487    0.139743
C     -2.482929    0.777485   -1.531443
C     -2.887793    0.466706   -2.979839
C     -2.515440    2.286095   -1.280537
C     -3.373997    0.032998   -0.575443
C     -2.603606   -0.893663    0.116508
C     -3.143824   -1.718302    1.088260
C     -4.510692   -1.598203    1.353667
C     -5.296818   -0.667763    0.653023
C     -4.729955    0.160221   -0.319412
H     -0.659525   -2.804890    0.020721
H     -0.044759   -1.605015    1.194821
H      0.674495   -1.757369   -0.450588
H     -0.014896    0.945231   -2.926233
H      2.093969    1.304799   -2.002805
H      1.224154    1.074394    3.345367
H      3.463334    0.147264    3.510437
H      5.685474   -0.172350    2.330503
H      5.078585   -1.985229   -0.114209
H      7.564633   -1.535938    1.736236
H      3.681822   -0.062471   -0.772082
H     -2.249386    0.995913   -3.695630
H     -3.923424    0.765019   -3.180186
H     -2.804538   -0.604382   -3.200680
H     -3.501130    2.706304   -1.512475
H     -1.779042    2.810905   -1.898798
H     -2.302431    2.531264   -0.235401
H     -2.543525   -2.423890    1.651157
H     -4.971161   -2.218855    2.120215
H     -6.357417   -0.580247    0.883432
H     -5.339799    0.890430   -0.843428


