%chk=3_HMT_c3_OpFr.chk
%nprocshared=92
%mem=350Gb
#P M062X/6-311G(2df,p) opt freq 

Optimization of 3_HMT_c3

0   1
S    0.113817936398   -0.277904014320    0.760991481872
C    1.376026663294    0.572258226586   -0.108935341369
C    0.877473401457    1.739472008941   -0.632031303374
C   -0.490283493381    1.947996795832   -0.350336649599
C   -1.065647357981    0.952960240877    0.388091543931
C   -2.479047568126    0.815573245309    0.826708336211
C   -3.237950766951   -0.316486552908    0.134212341610
C   -4.692295551033   -0.405512253802    0.564530135358
C   -5.451251315209   -1.529156079703   -0.125035457129
C   -6.888785522411   -1.710210987131    0.348849622899
C   -7.801644426790   -0.531271854985    0.052120711058
H    1.480539923048    2.416472587601   -1.217749497794
H   -1.046419803371    2.810088190765   -0.688238301442
H   -2.528746707333    0.667699447046    1.908171936273
H   -2.981560425653    1.763031287345    0.626837553875
H   -3.176738867785   -0.172130188380   -0.946052171431
H   -2.735382899399   -1.263547113592    0.340127919096
H   -4.741680737480   -0.549616528962    1.647910675869
H   -5.180460311739    0.550651815331    0.366287715434
H   -5.447508742790   -1.355310834754   -1.204809214825
H   -4.908880804985   -2.465068488330    0.028851063428
H   -7.300035571863   -2.605657155299   -0.121241967216
H   -6.889069640595   -1.910179881922    1.423465609006
H   -8.829229234646   -0.745379271247    0.342338337979
H   -7.495756908476    0.366424355649    0.586418101513
H   -7.803084103857   -0.294905987757   -1.012504174372
C    2.700032795138    0.029844847299   -0.186267187517
C    3.130460400093   -1.258025717964    0.012662279702
S    4.063940446564    1.058575172481   -0.582684065508
C    5.184231905371   -0.274927197435   -0.484908888034
C    4.523061556372   -1.423329475160   -0.155239056304
C    6.631663007057   -0.075137471535   -0.746623977941
H    2.454876526908   -2.064158576532    0.254882604155
H    5.030716522435   -2.369939116552   -0.042523881682
H    7.160325541111   -1.016908031106   -0.620041189030
H    6.819216399630    0.277630947388   -1.760838248069
H    7.075929166400    0.649764528216   -0.064516611001


