%chk=41_S18_c2_OpFr.chk
%nprocshared=92
%mem=350Gb
#P M062X/6-311G(2df,p) opt freq 

Optimization of 41_S18_c2    

0   1
C     -0.096131    2.862610    0.268876
N     -0.944472    1.745834   -0.082376
C     -2.305537    1.727172    0.219214
C     -2.846934    0.444739    0.122743
C     -4.184327    0.246287    0.382443
N     -5.003940    1.257331    0.739501
C     -4.457603    2.497763    0.810793
C     -3.123484    2.785027    0.558632
C     -1.779233   -0.530194   -0.308627
C     -1.837318   -1.860092    0.455841
C     -1.959593   -0.818585   -1.813096
C     -0.473554    0.343635   -0.006943
O      0.490623    0.146006   -1.057813
C      1.694753   -0.431582   -0.784537
C      2.140528   -0.687100    0.516694
C      1.297238   -0.348877    1.650563
C      0.077827    0.132744    1.395729
C      3.409321   -1.247717    0.731183
C      4.239454   -1.548180   -0.360246
C      3.816476   -1.295300   -1.666967
C      2.544644   -0.741466   -1.852596
N      2.113883   -0.487164   -3.210764
O      2.745784    0.369623   -3.842244
O      1.193074   -1.186616   -3.650984
N      5.566230   -2.132209   -0.124592
O      6.241767   -2.435123   -1.116629
O      5.924632   -2.287117    1.050339
H     -0.449691    3.783062   -0.207950
H     -0.068568    3.021640    1.352333
H      0.928727    2.697607   -0.079912
H     -4.651402   -0.729618    0.307917
H     -5.152343    3.287178    1.084737
H     -2.759296    3.800945    0.626366
H     -1.877936   -1.715574    1.541029
H     -2.732079   -2.433681    0.185826
H     -0.966337   -2.482799    0.223595
H     -2.940872   -1.263624   -2.017718
H     -1.888154    0.093629   -2.417127
H     -1.201799   -1.522666   -2.172630
H      1.654899   -0.488704    2.664974
H     -0.575431    0.390225    2.225738
H      3.746681   -1.441851    1.749202
H      4.449492   -1.517216   -2.524647


