%chk=5_HAP_c0_OpFr.chk
%nprocshared=92
%mem=350Gb
#P M062X/6-311G(2df,p) opt freq 

Optimization of 5_HAP_c0

0   1
N   -0.250861974420   -0.944720436952   -0.643511522040
C    0.928495373264   -0.741760909406   -1.332158365030
C    0.686148406746   -1.132934952606   -2.642345351854
C   -0.645592324184   -1.576884519176   -2.720936719758
C   -1.215454111503   -1.459874421126   -1.466282798981
C   -2.586996802578   -1.754577380207   -0.986271806878
C   -3.402832614584   -0.508203007843   -0.635113367531
C   -4.812798658070   -0.833250274039   -0.172211196318
C   -5.630755206082    0.396962145501    0.185760866774
C   -7.044113821152    0.076726775351    0.646925803547
C   -7.852707471312    1.312379834294    1.002959395055
H    1.395594900355   -1.074773061160   -3.448533961240
H   -1.152093526383   -1.942006658487   -3.597444256160
H   -2.548793233617   -2.414317762041   -0.114322870654
H   -3.102723010031   -2.316296742020   -1.764186696953
H   -3.438513150428    0.146365801513   -1.507588551256
H   -2.886713338112    0.059058142062    0.143191274510
H   -5.328703512448   -1.395317508035   -0.955538085741
H   -4.765851087679   -1.501051533021    0.692622649450
H   -5.676331679150    1.064785596361   -0.678831713314
H   -5.114980979255    0.958988355451    0.969318459843
H   -6.997116724327   -0.591247825999    1.510540300122
H   -7.558836189017   -0.484135305503   -0.137100139748
H   -7.945926418916    1.982606713928    0.148381647744
H   -8.858767122525    1.052665988330    1.328974623287
H   -7.380159218233    1.874605409740    1.808420791979
C    2.105570920871   -0.214967190342   -0.724688193214
C    3.396902669122   -0.225603340214   -1.223960496170
S    2.054160581891    0.580487592411    0.828667350452
C    3.774535860813    0.861279651379    0.791478542505
C    4.326282714584    0.381281740873   -0.374190598149
C    4.393543477378    1.522877798475    1.916213584324
H    3.649817959421   -0.683152669855   -2.167134445086
H    5.380535220967    0.463211273714   -0.583938647686
O    3.812978973654    1.902069938944    2.916951333366
O    5.737948154474    1.688994142692    1.744556711274
H   -0.361365272776   -0.809423229821    0.345162113262
H    6.042795081798    2.137132149972    2.547162032266


