%chk=20_SBA_c3_OpFr.chk
%nprocshared=92
%mem=350Gb
#P M062X/6-311G(2df,p) opt freq 

Optimization of 20_SBA_c3

0   1
C     -4.369095    1.504365   -0.164395
C     -4.133114    2.759683   -0.739796
C     -2.872030    3.071285   -1.244257
C     -1.858266    2.117176   -1.197838
C     -2.128759    0.848668   -0.660196
C     -3.356052    0.541362   -0.071747
N     -0.553158    2.374321   -1.653641
N      0.072046    3.006479   -0.769762
C      1.424998    2.622799   -0.768521
C      2.434995    3.515765   -1.118720
C      1.773318    1.339979   -0.315537
C      3.100503    0.918835   -0.234968
C      3.771549    3.126142   -1.016367
C      4.099611    1.840849   -0.566140
N     -3.642559   -0.705056    0.485263
N      3.436949   -0.366599    0.233270
C      2.787471   -1.498879   -0.509713
C      1.640051   -2.107600    0.319678
S      0.443896   -2.973812   -0.774762
C     -2.554561   -1.540478    1.074993
C     -2.434850   -2.826823    0.250751
C      3.850097   -2.581284   -0.796655
O      5.122977   -2.132649   -0.637527
O      3.665938   -3.731494   -1.158964
C     -2.942458   -1.888083    2.517122
O     -4.077504   -1.882687    2.974416
O     -1.894435   -2.199046    3.304891
S     -0.908278   -3.806125    0.531685
H     -5.362589    1.288737    0.223437
H     -4.933010    3.494228   -0.783586
H     -2.675417    4.051394   -1.668287
H     -1.334424    0.111146   -0.703415
H      2.180191    4.517228   -1.453873
H      0.972275    0.683469    0.003735
H      4.561809    3.825735   -1.279586
H      5.149258    1.566946   -0.487870
H     -4.467991   -0.687746    1.091313
H      4.454413   -0.501593    0.183802
H      2.448137   -1.144981   -1.492872
H      2.034099   -2.826166    1.047435
H      1.091604   -1.339060    0.871003
H     -1.611992   -0.985496    1.124257
H     -2.509457   -2.614247   -0.822575
H     -3.274301   -3.493299    0.485362
H      5.669207   -2.909750   -0.884910
H     -2.291094   -2.383636    4.183037

