%chk=5_HAP_c1_OpFr.chk
%nprocshared=92
%mem=350Gb
#P M062X/6-311G(2df,p) opt freq 

Optimization of 5_HAP_c1

0   1
N   -0.419605407156    0.112958648048   -1.419369503793
C    0.485929809875   -0.877845486628   -1.094866582493
C   -0.031490551480   -2.060464037138   -1.606406993463
C   -1.248607674731   -1.759022434979   -2.243011897388
C   -1.474039965123   -0.400070829304   -2.124840443231
C   -2.603339978818    0.447541115618   -2.579656557253
C   -3.411371434620    1.071139888947   -1.436849885388
C   -4.042356785578    0.047190291008   -0.509686758186
C   -4.854920303990    0.677073024522    0.610871315935
C   -5.417185957725   -0.317180592070    1.620233058712
C   -6.423902537812   -1.298091513047    1.041040076078
H    0.417418552443   -3.031794382151   -1.498440201044
H   -1.909435314979   -2.453195556211   -2.732265091157
H   -3.258832195033   -0.170877650590   -3.191640049210
H   -2.237146320702    1.242227808541   -3.235407269890
H   -4.187172150922    1.706813483277   -1.868507236189
H   -2.769059802033    1.738343294914   -0.855949669257
H   -3.259933408267   -0.582502564538   -0.080999398773
H   -4.672483490709   -0.620168130578   -1.101130971444
H   -4.225010141729    1.396567346648    1.139973884339
H   -5.676676661313    1.257370418638    0.180969983526
H   -4.591353031304   -0.868846149512    2.076213478026
H   -5.888697251039    0.240063703501    2.432055384781
H   -5.972471915794   -1.956024387894    0.300579777851
H   -6.849258700377   -1.931030676896    1.818472715207
H   -7.248382314016   -0.774103377383    0.556056884148
C    1.682155162699   -0.630547210593   -0.359990411526
C    2.783100420001   -1.458956260256   -0.225394289688
S    1.911787574703    0.847903583455    0.539887651260
C    3.495957746347    0.337470716704    1.059289115670
C    3.793581890730   -0.914794416264    0.572943238932
C    4.274125064646    1.228136341995    1.888427377531
H    2.850763957972   -2.417054740792   -0.715629711517
H    4.729975312788   -1.403926172284    0.787486645487
O    3.921449225940    2.332805946424    2.259188204925
O    5.484076060231    0.694904387777    2.228973941350
H   -0.280926925090    1.090273768601   -1.236209612983
H    5.912798725130    1.367997303400    2.777682289606

