%chk=20_SBA_c2_OpFr.chk
%nprocshared=92
%mem=350Gb
#P M062X/6-311G(2df,p) opt freq 

Optimization of 20_SBA_c2

0   1
C      3.911338    1.389047   -2.113389
C      3.383923    2.524440   -2.739914
C      2.061814    2.897680   -2.509065
C      1.272050    2.142622   -1.646191
C      1.825919    1.013160   -1.015619
C      3.150960    0.625366   -1.216807
N     -0.095412    2.428554   -1.485655
N     -0.326620    2.788761   -0.310060
C     -1.662948    2.502569    0.022397
C     -2.575773    3.522100    0.276517
C     -2.060389    1.164818    0.195621
C     -3.349409    0.816609    0.601200
C     -3.865837    3.204063    0.696896
C     -4.238148    1.865211    0.871088
N      3.694393   -0.556101   -0.708899
N     -3.733732   -0.488827    0.886671
C     -2.991046   -1.673955    0.374157
C     -1.902289   -2.071197    1.385496
S     -0.721792   -3.330966    0.758727
C      3.155023   -1.195781    0.528605
C      2.060706   -2.214111    0.159133
C     -3.997591   -2.819943    0.195856
O     -3.608080   -3.760050   -0.687011
O     -5.089193   -2.908513    0.741587
C      4.318267   -1.900739    1.261226
O      4.250920   -2.713206    2.168296
O      5.541471   -1.500010    0.825253
S      1.064988   -2.756747    1.606314
H      4.934476    1.098105   -2.342127
H      3.999656    3.100058   -3.426137
H      1.639424    3.761106   -3.014701
H      1.170501    0.435104   -0.374731
H     -2.275876    4.559563    0.163018
H     -1.311324    0.401789    0.016605
H     -4.578801    3.996153    0.910499
H     -5.240731    1.647750    1.233559
H      4.717510   -0.509295   -0.655731
H     -4.745187   -0.634698    0.901120
H     -2.581847   -1.445198   -0.617620
H     -2.361989   -2.482210    2.292086
H     -1.334961   -1.187411    1.692486
H      2.788906   -0.418694    1.211127
H      2.509635   -3.108482   -0.288467
H      1.379040   -1.789778   -0.583618
H     -4.344101   -4.407880   -0.699563
H      6.162161   -2.010836    1.388735

