%chk=3_HMT_c1_OpFr.chk
%nprocshared=92
%mem=350Gb
#P M062X/6-311G(2df,p) opt freq 

Optimization of 3_HMT_c1

0   1
S    0.144784148457    0.306814306181    1.577326531714
C    0.936771713454    0.500628542823    0.024911014604
C    0.100968848041    1.152870898894   -0.847313043658
C   -1.153473594750    1.483329927040   -0.289731091960
C   -1.305528834093    1.095851227297    1.011261604170
C   -2.497455148013    1.219499138724    1.890319796323
C   -3.113111111217   -0.125606412503    2.291338772366
C   -3.487643722467   -1.023631834999    1.121537537604
C   -4.549898645802   -0.450557087404    0.197566094203
C   -4.958232313193   -1.405038265824   -0.913609136712
C   -6.007230821277   -0.826033118969   -1.847205465697
H    0.380939301061    1.369223895562   -1.867080477121
H   -1.936139271348    1.989582071567   -0.835139760900
H   -3.233551338210    1.825719817909    1.363708007827
H   -2.244565581098    1.772839498667    2.797042644340
H   -2.406412903429   -0.655250495886    2.932705315244
H   -3.994956735970    0.069918738122    2.905650053800
H   -2.590832121423   -1.249384909603    0.541483351866
H   -3.838962020167   -1.979331452617    1.517249024119
H   -5.433275824891   -0.176228835978    0.782373304982
H   -4.188546442111    0.475599022782   -0.253757576804
H   -5.332291345067   -2.331919994516   -0.471830370550
H   -4.070896379398   -1.683582752648   -1.486944336856
H   -6.917339582969   -0.566246141720   -1.306078339151
H   -5.645859151330    0.081190114554   -2.331961798409
H   -6.280335132228   -1.531049270338   -2.631158850689
C    2.268654391048    0.014496696364   -0.178948789371
C    2.977200695946   -0.919755521500    0.534523925504
S    3.248914560745    0.623291357863   -1.499857411242
C    4.587485201758   -0.410045878935   -1.071260211419
C    4.276204753167   -1.152290170309    0.031871526370
C    5.841629509108   -0.401288178416   -1.865159908259
H    2.561911806910   -1.436424151640    1.386305774712
H    4.968079523763   -1.858314113403    0.466916682332
H    6.310103629120    0.582837965647   -1.881434507057
H    5.672559493808   -0.696437812128   -2.900825016987
H    6.553671803380   -1.100373328493   -1.433132417660



