%chk=14_NTI_c1_OpFr.chk
%nprocshared=92
%mem=350Gb
#P M062X/6-311G(2df,p) opt freq 

Optimization of 14_NTI_c1

0   1
C     -2.958056   -0.731938   -0.009304
C     -3.154088    0.605131    0.367726
C     -2.064263    1.466869    0.534731
C     -0.784223    0.976576    0.319312
C     -0.601546   -0.349947   -0.056423
C     -1.669580   -1.221737   -0.224215
C      0.813213   -0.696771   -0.233793
S      0.727120    1.885783    0.479086
C      1.676407    0.502283   -0.014948
O      1.195833   -1.823743   -0.485616
C      3.000522    0.579761   -0.138862
N      3.738252   -0.544619   -0.615349
O      4.496398   -1.082403    0.198580
O      3.642118   -0.807852   -1.819008
H     -3.815572   -1.390289   -0.133870
H     -4.164685    0.974205    0.532779
H     -2.226415    2.500026    0.828814
H     -1.503635   -2.255561   -0.514787
H      3.652199    1.414226    0.054183

