%chk=30_S07_c4_OpFr.chk
%nprocshared=92
%mem=350Gb
#P M062X/6-311G(2df,p) opt freq 

Optimization of 30_S07_c4    

0   1
C     -2.790743    5.314307    0.094331
N     -3.735595    4.356892    0.657289
C     -4.961716    4.204667   -0.024853
C     -5.501326    2.917980    0.102409
C     -6.713344    2.572597   -0.484691
C     -7.398698    3.543085   -1.214043
C     -6.875662    4.836504   -1.336312
C     -5.658067    5.172488   -0.735140
C     -4.587728    2.070576    0.961376
C     -4.403649    0.652410    0.400597
C     -5.215226    1.978693    2.368026
C     -3.264880    2.962296    0.892038
O     -2.480229    2.554406   -0.257572
C     -1.304227    1.892847   -0.048716
C     -0.678131    1.798442    1.194529
C     -1.277031    2.447490    2.348769
C     -2.486165    2.994473    2.191660
C      0.536454    1.109187    1.305809
C      1.122724    0.504852    0.184008
C      2.413757   -0.183621    0.334645
C      2.712587   -1.337939   -0.284491
C      3.977674   -2.075670   -0.196104
C      5.049262   -1.502854    0.700091
C      4.106743   -3.205486   -0.927455
C      5.258153   -4.085368   -1.005179
C      5.304456   -5.142047   -1.834142
C      6.419527   -6.081956   -1.996592
C      7.634595   -5.872119   -1.126698
C      6.286481   -7.065877   -2.909596
C      7.281327   -8.113402   -3.227429
O      7.057926   -8.954943   -4.093804
C      0.491465    0.629481   -1.060076
C     -0.717485    1.318383   -1.174963
H     -3.173404    6.337088    0.185400
H     -1.844238    5.288715    0.641742
H     -2.578503    5.111010   -0.962593
H     -7.128426    1.575974   -0.375694
H     -8.348733    3.298040   -1.682135
H     -7.423599    5.589146   -1.897782
H     -5.279468    6.184281   -0.827848
H     -3.634470    0.107883    0.958884
H     -5.330485    0.071082    0.473240
H     -4.120750    0.659350   -0.658527
H     -5.368054    2.968099    2.816973
H     -4.586193    1.389934    3.045186
H     -6.197042    1.490326    2.334533
H     -0.745009    2.487545    3.291422
H     -2.951444    3.504906    3.029265
H      1.027516    1.037699    2.273679
H      3.119802    0.305564    0.997686
H      1.950653   -1.791184   -0.917514
H      5.971321   -2.087503    0.715295
H      5.326702   -0.494115    0.371282
H      4.693982   -1.451105    1.735354
H      3.265929   -3.518492   -1.548543
H      6.102508   -3.862391   -0.365934
H      4.436066   -5.331505   -2.465589
H      8.441029   -6.583150   -1.316800
H      8.058254   -4.873390   -1.289945
H      7.366606   -5.972944   -0.067597
H      5.385061   -7.160174   -3.510443
H      8.221929   -8.109035   -2.660209
H      0.939949    0.206012   -1.956154
H     -1.200721    1.411557   -2.144373


