%chk=51_M10_c8_OpFr.chk
%nprocshared=92
%mem=350Gb
#P M062X/6-311G(2df,p) opt freq 

Optimization of 51_M10_c8    

0   1
C     -1.024233   -0.234658    2.139034
N     -0.455235   -0.700308    0.875381
C     -1.003722   -1.292063   -0.144789
C     -2.433342   -1.611183   -0.372614
C     -3.498812   -0.813967   -0.192651
C     -3.604963    0.580965    0.306151
C     -2.700503    1.629024   -0.034383
O     -1.672134    1.496271   -0.776609
C     -3.003516    2.898331    0.512733
C     -4.107073    3.151463    1.330926
C     -4.969326    2.106612    1.630888
C     -4.729357    0.828481    1.122889
N     -6.132018    2.342070    2.490374
O     -6.340019    3.498753    2.885238
O     -6.835761    1.365039    2.790065
C      0.078645   -1.717042   -1.182139
C     -0.201738   -1.174460   -2.584642
C      0.204472   -3.247084   -1.215021
C      1.318160   -1.109079   -0.584624
C      0.977118   -0.498677    0.614561
C      1.911205    0.165311    1.388125
C      3.232131    0.203915    0.924354
C      3.596625   -0.404487   -0.296687
C      4.980978   -0.393974   -0.785416
C      5.795592    0.668022   -0.695800
C      7.160018    0.581063   -1.231383
O      7.804502    1.742129   -1.040069
O      7.682635   -0.374336   -1.771346
C      2.624812   -1.078854   -1.051996
H     -0.426511   -0.642727    2.960371
H     -1.000015    0.856884    2.172258
H     -2.042453   -0.608406    2.257785
H     -2.611891   -2.574937   -0.841846
H     -4.465838   -1.224766   -0.486014
H     -2.343540    3.734390    0.269166
H     -4.268787    4.159543    1.701745
H     -5.413702    0.014801    1.354074
H      0.573101   -1.487653   -3.294185
H     -0.226953   -0.080463   -2.602366
H     -1.163768   -1.532204   -2.967392
H      1.060890   -3.566646   -1.820057
H     -0.690964   -3.712435   -1.641239
H      0.338354   -3.662359   -0.208768
H      1.651130    0.659722    2.317296
H      3.980686    0.716419    1.526690
H      5.325580   -1.308159   -1.267388
H      5.497499    1.612381   -0.258058
H      8.689501    1.590020   -1.432513
H      2.882541   -1.550680   -1.997198


