%chk=15_ABI_c2_OpFr.chk
%nprocshared=92
%mem=350Gb
#P M062X/6-311G(2df,p) opt freq 

Optimization of 15_ABI_c2

-1   1
C      4.732461    1.578308    0.832264
C      5.431127    0.509568    0.252195
C      4.741633   -0.571251   -0.308793
C      3.353479   -0.569381   -0.282672
C      2.670850    0.493841    0.293617
C      3.337507    1.575936    0.856349
C      1.212561    0.335335    0.236205
O      0.459844    1.170451    0.702672
C      0.853267   -0.949008   -0.447943
C     -0.367082   -1.452394   -0.685894
C     -1.677963   -0.872840   -0.369431
C     -2.607711   -1.654951    0.326402
C     -3.901250   -1.178937    0.564817
C     -4.302308    0.084252    0.104761
C     -3.363154    0.860800   -0.591962
C     -2.067677    0.386825   -0.832539
C     -5.712966    0.589099    0.345209
O     -6.497487   -0.172372    0.996052
O     -6.011022    1.731266   -0.128341
S      2.294345   -1.827900   -0.930076
H      5.278764    2.412946    1.265804
H      6.518793    0.521591    0.239017
H      5.288415   -1.396092   -0.756122
H      2.780233    2.395434    1.302301
H     -0.450101   -2.424416   -1.170258
H     -2.343513   -2.644270    0.688701
H     -4.616805   -1.794768    1.107546
H     -3.655820    1.845559   -0.953253
H     -1.378419    1.017369   -1.386103

