%chk=50_M09_c4_OpFr.chk
%nprocshared=92
%mem=350Gb
#P M062X/6-311G(2df,p) opt freq 

Optimization of 50_M09_c4    

0   1
C     -0.245793    0.048249   -1.648367
N     -1.286570   -0.354765   -0.703619
C     -1.317499   -1.303095    0.186436
C     -0.239018   -2.241278    0.583713
C      1.049438   -1.958271    0.833950
C      1.786628   -0.672758    0.757558
C      1.274596    0.567457    1.229909
O      0.122528    0.738564    1.752142
C      2.151233    1.664072    1.084528
C      3.431391    1.574264    0.522821
C      3.909442    0.352394    0.067798
C      5.258058    0.191875   -0.490364
C      5.816120    1.080174   -1.324090
C      7.173463    0.844168   -1.850016
O      7.690473    1.613886   -2.650069
C      3.087671   -0.767302    0.207164
C     -2.734539   -1.411250    0.826321
C     -2.704287   -1.303940    2.351934
C     -3.408684   -2.721953    0.395058
C     -3.436438   -0.238893    0.197802
C     -2.558566    0.381921   -0.682484
C     -2.913655    1.511923   -1.398847
C     -4.204422    2.015823   -1.216703
C     -5.099385    1.389067   -0.333067
C     -4.718216    0.253104    0.385838
H      0.545184   -0.702231   -1.685003
H     -0.687414    0.104837   -2.648552
H      0.148594    1.026460   -1.364973
H     -0.573237   -3.252228    0.798666
H      1.676091   -2.778539    1.183550
H      1.819494    2.639397    1.446409
H      4.038982    2.473324    0.479021
H      5.781146   -0.714840   -0.196600
H      5.322744    1.984480   -1.659537
H      7.690140   -0.060383   -1.488716
H      3.453511   -1.736163   -0.125757
H     -3.711842   -1.386769    2.776116
H     -2.092541   -2.096096    2.797133
H     -2.295691   -0.345244    2.686200
H     -3.379166   -2.851203   -0.693682
H     -2.911775   -3.591729    0.838399
H     -4.460534   -2.752572    0.702202
H     -2.224880    2.017541   -2.065968
H     -4.517808    2.910958   -1.750924
H     -6.096287    1.804703   -0.195005
H     -5.408678   -0.214624    1.081677


