%chk=4_HAT_c1_OpFr.chk
%nprocshared=92
%mem=350Gb
#P M062X/6-311G(2df,p) opt freq 

Optimization of 4_HAT_c1

0   1
S   -0.828068000146    0.385631316520    0.022903678907
C    0.673096480602   -0.496985449961    0.221079931747
C    0.412366007111   -1.772959584398    0.660414551477
C   -0.960087956303   -2.041407737392    0.831926940882
C   -1.775784005543   -0.985363601105    0.529782266015
C   -3.259757926424   -0.918699432933    0.552967207802
C   -3.888985239858   -0.818574932595   -0.838606120395
C   -5.410005523495   -0.879928632429   -0.834939126534
C   -6.094549753241    0.282535996485   -0.131979413791
C   -7.610459898060    0.252145640099   -0.253240743951
C   -8.292142593636    1.409278169581    0.456315527181
H    1.192489401900   -2.497384153126    0.838217433915
H   -1.347675110701   -2.991765314810    1.167137090824
H   -3.625550070390   -1.818299391408    1.050267577857
H   -3.584509878368   -0.077021275520    1.165447580419
H   -3.561579779027    0.109100276649   -1.312758031010
H   -3.491991036581   -1.627584330631   -1.453079428116
H   -5.755027873151   -0.917354653167   -1.870692777633
H   -5.733779441828   -1.820186184739   -0.379665981397
H   -5.827773745059    0.291496746839    0.927070514432
H   -5.718657830193    1.223840249135   -0.543736691987
H   -7.885533738716    0.257402525086   -1.310729888357
H   -7.982922696262   -0.693823852164    0.147599176157
H   -9.374929555763    1.362258394120    0.350489511013
H   -7.963139087745    2.367510259437    0.054100772548
H   -8.065153876963    1.407644129620    1.522507333197
C    1.929134648816    0.125903961039   -0.062415207028
C    2.175293151648    1.282821277553   -0.779243858413
S    3.418337887600   -0.570770322672    0.518389907426
C    4.347926921731    0.695584676925   -0.231509855771
C    3.534819324359    1.601788914749   -0.870786845670
C    5.790661788411    0.666404345307   -0.109107469294
H    1.388094076115    1.863060951532   -1.235139361852
H    3.926922498655    2.458617173227   -1.393987176397
O    6.428131371985   -0.188229232384    0.475725384145
O    6.383393682207    1.724976957336   -0.732463118618
H    7.333923087600    1.607144994533   -0.588299304144

