%chk=40_S17_c5_OpFr.chk
%nprocshared=92
%mem=350Gb
#P M062X/6-311G(2df,p) opt freq 

Optimization of 40_S17_c5    

0   1
C     -3.741599    1.438177   -3.671465
C     -3.988892    0.683729   -2.348372
C     -3.667082   -0.802441   -2.577876
C     -5.478714    0.815921   -1.995920
C     -3.062454    1.308225   -1.264587
N     -3.178356    0.671257    0.041691
C     -3.926834    1.172956    1.106435
C     -3.658176    0.493998    2.306081
C     -4.299983    0.818093    3.495766
C     -5.229698    1.855533    3.483716
C     -5.504180    2.543683    2.295513
C     -4.853846    2.201575    1.103997
C     -2.627047   -0.585296    2.044978
C     -1.577469   -0.702813    3.159234
C     -3.358286   -1.937907    1.909046
C     -2.044254   -0.072680    0.651976
O     -1.733831   -1.201201   -0.183150
C     -0.423442   -1.514650   -0.412124
C      0.642575   -0.655208   -0.100511
C      0.365424    0.655641    0.458028
C     -0.896681    0.919587    0.811582
C      1.968804   -1.068394   -0.378501
C      2.131530   -2.303431   -1.000505
O      3.441391   -2.553361   -1.245694
C      4.166108   -1.498545   -0.768076
C      3.304122   -0.562671   -0.208517
C      3.754604    0.670324    0.406007
C      3.674238    0.826353    1.795669
C      4.111452    2.008820    2.393640
C      4.630023    3.037096    1.607353
C      4.711259    2.886684    0.222812
C      4.273687    1.705772   -0.378922
C      5.611978   -1.624692   -0.951871
C      6.125895   -2.242290   -2.103873
C      7.504291   -2.357835   -2.304693
C      8.389657   -1.860852   -1.352252
C      7.897556   -1.253731   -0.198984
C      6.518240   -1.137712   -0.000171
C      1.092371   -3.168237   -1.338396
C     -0.200107   -2.747635   -1.024639
H     -4.367341    1.041339   -4.479314
H     -3.971068    2.504781   -3.566823
H     -2.696365    1.350562   -3.988669
H     -3.894655   -1.404804   -1.692281
H     -2.610963   -0.944682   -2.831185
H     -4.260282   -1.211829   -3.404421
H     -5.762644    1.864362   -1.857911
H     -5.730007    0.265198   -1.084048
H     -6.108724    0.412296   -2.797583
H     -2.027977    1.225929   -1.622600
H     -3.249937    2.387020   -1.184427
H     -4.094286    0.277372    4.413567
H     -5.747897    2.131417    4.399325
H     -6.232200    3.350959    2.297163
H     -5.083648    2.752505    0.199921
H     -2.020326   -1.096417    4.081865
H     -1.132678    0.265075    3.416273
H     -0.772877   -1.386796    2.869484
H     -4.104126   -1.921778    1.105557
H     -2.654021   -2.750149    1.698230
H     -3.887830   -2.197271    2.833503
H      1.142999    1.397902    0.573179
H     -1.135376    1.888694    1.240718
H      3.273402    0.028669    2.417224
H      4.048621    2.127318    3.472686
H      4.972139    3.957627    2.073620
H      5.116975    3.688862   -0.388427
H      4.342219    1.598630   -1.459216
H      5.449440   -2.635309   -2.860726
H      7.882619   -2.836645   -3.203996
H      9.461832   -1.949695   -1.506086
H      8.585304   -0.868575    0.549424
H      6.166202   -0.670594    0.915666
H      1.285232   -4.117994   -1.822486
H     -1.046030   -3.385818   -1.270801


