%chk=51_M10_c4_OpFr.chk
%nprocshared=92
%mem=350Gb
#P M062X/6-311G(2df,p) opt freq 

Optimization of 51_M10_c4    

0   1
C     -0.264255   -1.023931    3.477124
N      0.030470   -0.289399    2.243315
C     -0.645357    0.644088    1.643860
C     -1.889214    1.250151    2.154926
C     -3.115159    0.937832    1.710179
C     -3.483906    0.000227    0.624667
C     -3.063665   -1.360602    0.581299
O     -2.332909   -1.928196    1.458544
C     -3.528441   -2.102542   -0.529345
C     -4.353006   -1.575941   -1.527508
C     -4.751966   -0.249466   -1.435104
C     -4.329404    0.540566   -0.365486
N     -5.613237    0.327869   -2.468657
O     -5.813942    1.552233   -2.435572
O     -6.085348   -0.433244   -3.326288
C      0.114480    1.171884    0.396732
C     -0.670627    1.034911   -0.905791
C      0.529706    2.631670    0.621738
C      1.325174    0.272437    0.393138
C      1.237562   -0.597453    1.472893
C      2.197521   -1.560320    1.717418
C      3.282934   -1.632237    0.835739
C      3.402415   -0.746550   -0.258335
C      4.554616   -0.901479   -1.157771
C      5.145992    0.109403   -1.812079
C      6.301961   -0.163404   -2.676419
O      6.717888    0.971823   -3.258304
O      6.842814   -1.233591   -2.873795
C      2.398535    0.208527   -0.485761
H     -0.255626   -2.098895    3.277593
H      0.509068   -0.778866    4.211630
H     -1.236148   -0.723255    3.876272
H     -1.781700    1.940333    2.984954
H     -3.974073    1.412886    2.181318
H     -3.235921   -3.151961   -0.607167
H     -4.667395   -2.217925   -2.345195
H     -4.645944    1.578468   -0.291884
H     -0.069338    1.344496   -1.768941
H     -1.567056    1.662656   -0.898210
H     -0.980142    0.000065   -1.085099
H     -0.345865    3.289413    0.666250
H      1.076312    2.755151    1.564554
H      1.177622    2.993972   -0.184666
H      2.125561   -2.257635    2.544961
H      4.045127   -2.392865    1.005317
H      4.940665   -1.915234   -1.266167
H      4.826894    1.140636   -1.734316
H      7.476390    0.688238   -3.810681
H      2.439936    0.875057   -1.342963


