%chk=4_HAT_c3_OpFr.chk
%nprocshared=92
%mem=350Gb
#P M062X/6-311G(2df,p) opt freq 

Optimization of 4_HAT_c3

0   1
S   -0.802718100815   -0.166288913234    0.882314197807
C    0.637774954569   -0.700371807595    0.038751262002
C    0.420399508463   -1.934923868771   -0.525006770683
C   -0.872524883095   -2.442851562644   -0.289988747599
C   -1.669608469501   -1.614960980785    0.452380450346
C   -3.087322075475   -1.803802072569    0.854814403892
C   -4.057949377542   -0.840060101464    0.171327472769
C   -5.503695617595   -1.083450197270    0.572583095855
C   -6.515141519167   -0.204899921145   -0.153009472793
C   -6.392465453598    1.284129348479    0.136351646758
C   -7.486768095519    2.106574534979   -0.522558446460
H    1.171547599691   -2.450108714770   -1.104109337285
H   -1.218245940608   -3.396468473163   -0.659952679626
H   -3.365965335228   -2.830982076098    0.616403473999
H   -3.189974958384   -1.704150935470    1.937867851369
H   -3.950905438209   -0.938961614542   -0.910856434143
H   -3.766137317503    0.182102045298    0.412050771851
H   -5.607795660591   -0.938669966345    1.651676419746
H   -5.749923293317   -2.131741599565    0.386296204232
H   -6.429905600245   -0.370422136025   -1.230746099834
H   -7.521202999786   -0.532894936440    0.119480441371
H   -5.420272279195    1.649214451918   -0.198101820315
H   -6.416952298134    1.440873588576    1.218097590746
H   -8.474065296716    1.798840478527   -0.177887916827
H   -7.468556288875    1.989718769515   -1.606230400859
H   -7.377109921996    3.167800599741   -0.304285117547
C    1.812357973190    0.115560901109    0.010532889951
C    1.937260405980    1.457706444620    0.320246350735
S    3.350725678585   -0.556255468152   -0.461196746012
C    4.131399960645    0.985471403272   -0.252170012974
C    3.241589140614    1.943307509363    0.174201335039
C    5.548816297133    1.091524801717   -0.529823840659
H    1.099031858850    2.064517842043    0.625800284852
H    3.537841371795    2.962746675277    0.360250213620
O    6.258452259141    0.182034291600   -0.914521533413
O    6.025394035722    2.350467385512   -0.309948336110
H    6.969346127253    2.307471016621   -0.522835069850


