%chk=30_S07_c3_OpFr.chk
%nprocshared=92
%mem=350Gb
#P M062X/6-311G(2df,p) opt freq 

Optimization of 30_S07_c3    

0   1
C     -5.259262    0.802730    1.367545
N     -4.929135    2.217951    1.277395
C     -5.677521    2.986318    0.360852
C     -4.956301    4.068245   -0.160457
C     -5.523998    4.955415   -1.068248
C     -6.847020    4.752026   -1.457726
C     -7.582045    3.682185   -0.932082
C     -6.999969    2.799561   -0.015528
C     -3.569509    4.086692    0.445763
C     -3.548871    5.176754    1.537336
C     -2.479236    4.394232   -0.590367
C     -3.512504    2.594971    1.012136
O     -2.999364    1.715976   -0.020620
C     -1.742809    1.200625    0.123596
C     -1.022751    1.239290    1.317597
C     -1.621259    1.845155    2.494963
C     -2.789464    2.475369    2.338566
C      0.256919    0.671631    1.371623
C      0.817749    0.058059    0.241684
C      2.178919   -0.493283    0.333039
C      2.562257   -1.633241   -0.267389
C      3.897707   -2.238627   -0.221329
C      4.933662   -1.564552    0.646034
C      4.113516   -3.356172   -0.949496
C      5.344762   -4.115703   -1.064001
C      5.441000   -5.220327   -1.824168
C      6.632534   -6.055425   -2.010691
C      7.882989   -5.657639   -1.266088
C      6.531000   -7.118796   -2.832306
C      7.600329   -8.086987   -3.159265
O      7.393475   -9.016696   -3.931568
C      0.084699    0.038699   -0.952048
C     -1.194060    0.597175   -1.006776
H     -4.562289    0.284005    2.034473
H     -6.258536    0.664667    1.794135
H     -5.222832    0.308819    0.389490
H     -4.960951    5.794030   -1.464020
H     -7.314398    5.432220   -2.165528
H     -8.616493    3.539520   -1.233714
H     -7.592005    1.987739    0.392362
H     -2.572122    5.225180    2.031116
H     -3.744297    6.168411    1.110718
H     -4.312034    5.006366    2.305682
H     -2.554110    3.749605   -1.473287
H     -1.481502    4.269483   -0.155669
H     -2.550238    5.427693   -0.950785
H     -1.128740    1.773785    3.457252
H     -3.271089    2.925751    3.201101
H      0.818214    0.698500    2.303203
H      2.867790    0.086328    0.939460
H      1.819938   -2.184095   -0.845017
H      5.889109   -2.091919    0.683212
H      5.144101   -0.554118    0.277882
H      4.579914   -1.495843    1.681186
H      3.286259   -3.755626   -1.538711
H      6.206964   -3.759574   -0.513192
H      4.551521   -5.545146   -2.366328
H      8.730636   -6.321527   -1.443732
H      7.703287   -5.661428   -0.184369
H      8.205191   -4.653538   -1.565265
H      5.598713   -7.350003   -3.342677
H      8.580303   -7.942075   -2.686328
H      0.502094   -0.400593   -1.855443
H     -1.758837    0.571772   -1.935203


