%chk=32_S09_c5_OpFr.chk
%nprocshared=92
%mem=350Gb
#P M062X/6-311G(2df,p) opt freq 

Optimization of 32_S09_c5    

0   1
C     -1.493211    2.128156   -1.688708
N     -1.978099    1.573357   -0.432914
C     -3.146460    0.785553   -0.501471
C     -3.191211   -0.211529    0.480804
C     -4.270572   -1.081176    0.589882
C     -5.328728   -0.943479   -0.307045
C     -5.300877    0.058611   -1.284471
C     -4.211209    0.930547   -1.379601
C     -1.949724   -0.126389    1.342160
C     -1.351731   -1.507336    1.646462
C     -2.344717    0.555232    2.668515
C     -1.032445    0.771527    0.392610
O     -0.282621   -0.095021   -0.495716
C      1.066188   -0.210981   -0.317394
C      1.815038    0.633266    0.501649
C      1.154438    1.717908    1.207202
C     -0.179191    1.773711    1.143811
C      3.198812    0.442674    0.610405
C      3.841342   -0.580123   -0.103311
C      5.290374   -0.761122    0.067010
C      6.109998   -1.147678   -0.920468
C      7.555514   -1.297176   -0.664549
O      8.324956   -1.649257   -1.549537
C      3.072151   -1.423752   -0.914714
C      1.692914   -1.233313   -1.027574
H     -2.188231    2.882395   -2.073099
H     -1.355352    1.354388   -2.452734
H     -0.533331    2.635098   -1.543195
H     -4.301656   -1.847038    1.357740
H     -6.184690   -1.610445   -0.242241
H     -6.136511    0.164965   -1.971568
H     -4.217670    1.710954   -2.132024
H     -0.385839   -1.411134    2.153939
H     -1.206575   -2.104392    0.739260
H     -2.007932   -2.090860    2.302973
H     -2.786227    1.545899    2.507867
H     -3.088678   -0.038977    3.213338
H     -1.478450    0.670584    3.329294
H      1.735947    2.452796    1.750713
H     -0.701778    2.584258    1.643125
H      3.781282    1.105283    1.247296
H      5.677274   -0.539786    1.059379
H      5.784291   -1.356827   -1.932370
H      7.899487   -1.077042    0.359596
H      3.529457   -2.243917   -1.463188
H      1.104254   -1.888412   -1.664922


