%chk=20_SBA_c0_OpFr.chk
%nprocshared=92
%mem=350Gb
#P M062X/6-311G(2df,p) opt freq 

Optimization of 20_SBA_c0

0   1
C     -4.456567    1.585836   -0.096140
C     -4.215373    2.942727   -0.348690
C     -2.910497    3.432862   -0.356431
C     -1.849321    2.563031   -0.126565
C     -2.115042    1.209102    0.143847
C     -3.411348    0.697267    0.186383
N     -0.513027    3.001989   -0.123282
N      0.005955    2.776911   -1.240837
C      1.372767    2.474494   -1.090991
C      2.356650    3.223225   -1.732017
C      1.756933    1.331973   -0.375204
C      3.086173    0.925991   -0.281457
C      3.698889    2.839270   -1.640601
C      4.059287    1.689458   -0.926725
N     -3.690482   -0.654011    0.359932
N      3.392159   -0.277145    0.374742
C      3.241278   -1.499166   -0.475544
C      1.793316   -2.010421   -0.609874
S      0.903737   -2.267984    0.978745
C     -2.715774   -1.595196    0.983563
C     -1.972553   -2.351302   -0.129154
C      4.148872   -2.621643    0.048569
O      5.193758   -2.161068    0.781781
O      4.055135   -3.815717   -0.187470
C     -3.505469   -2.582352    1.853197
O     -4.665838   -2.926799    1.673354
O     -2.818503   -3.043318    2.916026
S     -0.651772   -3.499372    0.424485
H     -5.483499    1.226833   -0.120271
H     -5.048218    3.612394   -0.548120
H     -2.717638    4.482734   -0.555059
H     -1.264050    0.559548    0.310017
H      2.078517    4.102538   -2.306148
H      0.995376    0.748640    0.129635
H      4.464434    3.430115   -2.137455
H      5.105957    1.398818   -0.883348
H     -4.654348   -0.848911    0.637913
H      4.355849   -0.258709    0.722640
H      3.631288   -1.283067   -1.480154
H      1.799654   -2.960824   -1.156311
H      1.202826   -1.305542   -1.203465
H     -2.038560   -1.049553    1.650712
H     -1.535455   -1.656110   -0.854712
H     -2.688490   -2.963722   -0.691268
H      5.662908   -2.977967    1.055441
H     -3.439892   -3.645853    3.375279

