%chk=30_S07_c3_OpFr.chk
%nprocshared=92
%mem=350Gb
#P M062X/6-311G(2df,p) Integral(SuperFine) freq Geom=Checkpoint

Optimization of 30_S07_c3    

0   1


