%chk=6_ZAT_c0_OpFr.chk
%nprocshared=92
%mem=350Gb
#P M062X/6-311G(2df,p) opt freq 

Optimization of 6_ZAT_c0

0   1
8        -0.800447      1.098616     -0.010058
8        -0.694749     -1.152706      0.007940
6         1.343874      0.052240      0.002114
6        -0.208836     -0.001222      0.003971
1         1.732881     -0.575381      0.814318
1         1.709498      1.078168      0.105682
1         1.708956     -0.376171     -0.941565

