%chk=32_S09_c1_OpFr.chk
%nprocshared=92
%mem=350Gb
#P M062X/6-311G(2df,p) opt freq 

Optimization of 32_S09_c1    

0   1
C     -1.395059    2.511807   -1.168315
N     -1.879031    1.705752   -0.056708
C     -3.111332    1.045528   -0.245425
C     -3.204307   -0.152874    0.473135
C     -4.348559   -0.941684    0.432665
C     -5.423271   -0.514764   -0.345718
C     -5.346492    0.688491   -1.057510
C     -4.191270    1.475424   -1.003501
C     -1.929494   -0.368757    1.259854
C     -2.216868    0.000970    2.729735
C     -1.439628   -1.822365    1.194741
C     -0.974857    0.661433    0.500413
O     -0.335355   -0.018521   -0.609250
C      1.004449   -0.272896   -0.540461
C      1.853100    0.293181    0.410347
C      1.313459    1.219712    1.390744
C     -0.012054    1.386790    1.418569
C      3.219261   -0.018323    0.392399
C      3.744276   -0.885379   -0.577823
C      5.164989   -1.262135   -0.610879
C      6.163364   -0.419268   -0.312482
C      7.563682   -0.879638   -0.379997
O      8.492690   -0.130306   -0.106650
C      2.875290   -1.451523   -1.518970
C      1.514222   -1.138875   -1.505997
H     -0.391477    2.897342   -0.959256
H     -1.350176    1.938448   -2.101422
H     -2.037950    3.385082   -1.322486
H     -4.416296   -1.865393    0.997713
H     -6.329703   -1.112949   -0.393241
H     -6.194726    1.018353   -1.651969
H     -4.159230    2.412573   -1.547507
H     -2.578432    1.030899    2.833060
H     -1.320499   -0.110013    3.349863
H     -2.988178   -0.650481    3.158785
H     -2.118314   -2.496878    1.730020
H     -1.378814   -2.192787    0.165349
H     -0.451103   -1.922075    1.655846
H      1.975361    1.756099    2.060088
H     -0.444510    2.088229    2.125938
H      3.871901    0.414519    1.147138
H      5.371120   -2.284936   -0.919260
H      6.019043    0.615271   -0.025264
H      7.723653   -1.926862   -0.685594
H      3.248236   -2.132798   -2.280746
H      0.848891   -1.573423   -2.247754


