%chk=1_SSB_c1_OpFr.chk
%nprocshared=92
%mem=350Gb
#P M062X/6-311G(2df,p) opt freq 

Optimization of 1_SSB_c1

0   1
C    1.641639336780    0.067830354541   -0.078933140367
C   -2.858731281897   -0.570157716100    0.419843342706
C   -1.560604261275    0.405639578907   -1.365163671229
H   -0.651360253829    0.863164355030   -1.729792090098
C    0.672519347740    0.080431492108    1.032174140936
C    1.546505777896   -0.464582590499   -1.362405617116
H    0.633642130239   -0.937223041300   -1.697514095040
C   -2.674635208293    0.324408481817   -2.188844660406
C   -0.661807933590   -0.035602698979    1.041575283871
C    3.961638033694    0.639901237718   -0.474933475260
H    4.902356396959    1.047529287616   -0.124312015954
C   -1.642353350061   -0.070800683902   -0.058970769547
C    2.862789931779    0.587129240457    0.365269369744
C    2.651954610369   -0.419285406282   -2.200286681096
C    3.849328592098    0.142124814376   -1.767667889488
H    4.702385871397    0.169275256175   -2.433358624034
C   -3.867346683192   -0.217528653859   -1.720028255255
H   -4.727223713360   -0.273241763738   -2.375081831726
C   -3.966187158842   -0.658951517049   -0.405900003879
H   -4.903138427843   -1.050850971972   -0.028297911063
C   -2.746623598878   -0.930069972210    1.878361638596
H   -3.628717944367   -0.642776908923    2.449996744808
H   -2.619564066996   -2.010366073848    1.991042131008
C   -1.467907281479   -0.191870630329    2.320660814714
H   -1.731892606631    0.794880053668    2.714831279556
H   -0.918509590307   -0.722384045405    3.096971943466
C    1.491751869866    0.291649709037    2.294918215505
H    1.760001928506   -0.677204710769    2.728622027708
H    0.950285493692    0.855348342871    3.053205686046
C    2.765678997041    1.009743139075    1.807954056380
H    2.639566939860    2.093929949667    1.875161935663
H    3.653691588342    0.747202704660    2.382324801384
H   -2.618507486257    0.700298687654   -3.202367562067
H    2.585444159837   -0.838610218486   -3.195985108000




