%chk=3_HMT_c2_OpFr.chk
%nprocshared=92
%mem=350Gb
#P M062X/6-311G(2df,p) opt freq 

Optimization of 3_HMT_c2

0   1
S    0.043519750198   -0.211650975700    0.675952885152
C    1.376390893657    0.595865764708   -0.126762690082
C    0.948359560387    1.786980777613   -0.658603757757
C   -0.421466209832    2.046967589669   -0.436668798879
C   -1.068704126494    1.068185745642    0.262871935649
C   -2.505202787430    0.980814506211    0.633389627849
C   -3.270937219394   -0.118703195036   -0.102550994857
C   -4.746618438699   -0.155891816102    0.256436679846
C   -5.507154291325   -1.262007856573   -0.459088290184
C   -7.009166904472   -1.271741342828   -0.199513143454
C   -7.395374164158   -1.547109438181    1.244886861445
H    1.603553883294    2.445015282662   -1.208884206286
H   -0.927409433818    2.933701093554   -0.789309614078
H   -2.611821993142    0.829129567363    1.710277838982
H   -2.962605809130    1.947289675289    0.416686321899
H   -3.150924034851    0.027365794094   -1.177620299456
H   -2.815056655676   -1.084984642517    0.122357203518
H   -4.845986509953   -0.273235617823    1.337304400489
H   -5.203293830224    0.808629195620    0.015180831904
H   -5.086287915501   -2.230117492637   -0.172943220932
H   -5.335657897969   -1.167467474508   -1.534047464734
H   -7.468128689979   -2.026739836039   -0.840903201542
H   -7.433229523253   -0.314699520620   -0.514389683954
H   -7.050882519450   -0.762548074829    1.916260925057
H   -6.967072528454   -2.487796521689    1.592720401607
H   -8.476343029548   -1.616921736011    1.357549284486
C    2.679856826245    0.002119905753   -0.150000604995
C    3.049505937039   -1.304078752778    0.052300406772
S    4.100329557447    0.980029764932   -0.469412287147
C    5.160935321240   -0.399224725075   -0.341399219194
C    4.440605857021   -1.523090995678   -0.053891812972
C    6.625172956432   -0.255550125035   -0.537742896010
H    2.332207310241   -2.085244328512    0.252758200898
H    4.904840176701   -2.490376034523    0.069931249490
H    6.871135369063    0.099443145644   -1.538688339150
H    7.109778380503   -1.219108857307   -0.399395779351
H    7.067788263528    0.443931353534    0.171511549038

