%chk=40_S17_c2_OpFr.chk
%nprocshared=92
%mem=350Gb
#P M062X/6-311G(2df,p) opt freq 

Optimization of 40_S17_c2    

0   1
C     -5.249860   -0.557022   -1.952897
C     -3.739974   -0.394496   -2.184817
C     -3.056358   -1.741291   -1.896840
C     -3.518727   -0.056489   -3.674698
C     -3.118326    0.758318   -1.339624
N     -3.224725    0.551845    0.113652
C     -4.128528    1.363088    0.845868
C     -3.753694    1.522062    2.188722
C     -4.518175    2.257609    3.088981
C     -5.687932    2.857943    2.631588
C     -6.075723    2.712360    1.296007
C     -5.299006    1.963005    0.404031
C     -2.461222    0.781173    2.440904
C     -1.483477    1.572200    3.321439
C     -2.810615   -0.548131    3.141518
C     -1.972174    0.622966    0.933158
O     -1.255487    1.825781    0.551189
C      0.090951    1.760457    0.322633
C      0.800244    0.553312    0.216255
C      0.096189   -0.704993    0.374675
C     -1.197735   -0.654576    0.706069
C      2.192709    0.589605   -0.045374
C      2.784747    1.845258   -0.152552
O      4.119335    1.735693   -0.362374
C      4.429733    0.406094   -0.414079
C      3.270836   -0.342359   -0.242687
C      3.249238   -1.791253   -0.245131
C      2.733811   -2.480171   -1.350463
C      2.709787   -3.875404   -1.355654
C      3.200375   -4.585128   -0.259933
C      3.715083   -3.902862    0.842533
C      3.740063   -2.507367    0.852058
C      5.849335    0.125692   -0.636361
C      6.274854   -0.994530   -1.363147
C      7.636093   -1.249202   -1.558981
C      8.591977   -0.383538   -1.034678
C      8.188821    0.738112   -0.315881
C      6.828296    0.990148   -0.119936
C      2.105817    3.058342   -0.053293
C      0.732576    2.990458    0.179178
H     -5.654516   -1.373987   -2.562192
H     -5.795119    0.349356   -2.233522
H     -5.476699   -0.792192   -0.908156
H     -3.416982   -2.520536   -2.578849
H     -1.970650   -1.672393   -2.025822
H     -3.265371   -2.086809   -0.879373
H     -3.939068   -0.831071   -4.326113
H     -2.451160    0.028930   -3.907020
H     -3.995533    0.893950   -3.939227
H     -3.551214    1.721593   -1.638891
H     -2.060376    0.832461   -1.623653
H     -4.218956    2.364198    4.126371
H     -6.303066    3.439008    3.313643
H     -6.990854    3.183498    0.945880
H     -5.631162    1.873343   -0.621456
H     -0.506251    1.078940    3.360242
H     -1.337335    2.596658    2.961822
H     -1.849921    1.652236    4.351538
H     -3.499627   -1.159377    2.547008
H     -1.911626   -1.142863    3.337818
H     -3.296828   -0.369927    4.108532
H      0.594625   -1.654195    0.241366
H     -1.741598   -1.585464    0.830086
H      2.349172   -1.934456   -2.209375
H      2.308523   -4.408804   -2.213554
H      3.182210   -5.672195   -0.264825
H      4.098444   -4.457709    1.695090
H      4.145155   -1.984879    1.715787
H      5.555833   -1.680893   -1.801582
H      7.946363   -2.123002   -2.126118
H      9.649471   -0.580881   -1.188914
H      8.929674    1.419952    0.092073
H      6.534507    1.871827    0.446605
H      2.625046    4.003735   -0.155025
H      0.155753    3.909239    0.259581


